p wcnf 107 130 131 
1 -74 -91 0 
1 -69 6 0 
1 -87 59 0 
1 51 -35 0 
1 -5 -53 0 
1 47 89 0 
1 75 -10 0 
1 -9 -70 0 
1 17 -101 0 
1 76 52 0 
1 -4 86 0 
1 1 55 0 
1 -62 -90 0 
1 73 -102 0 
1 17 7 0 
1 -64 -47 0 
1 -54 61 0 
1 14 -64 0 
1 -24 84 0 
1 62 43 0 
1 -78 102 0 
1 -62 75 0 
1 24 -11 0 
1 -42 83 0 
1 83 43 0 
1 21 -17 0 
1 104 64 0 
1 -23 16 0 
1 -74 -49 0 
1 74 -40 0 
1 -52 -101 0 
1 -74 -38 0 
1 -103 100 0 
1 -31 49 0 
1 62 39 0 
1 30 34 0 
1 -70 87 0 
1 13 -41 0 
1 -83 9 0 
1 -79 -36 0 
1 41 32 0 
1 -36 -4 0 
1 100 -19 0 
1 -82 -28 0 
1 -44 69 0 
1 -93 10 0 
1 -21 -88 0 
1 -7 -58 0 
1 42 72 0 
1 46 89 0 
1 27 8 0 
1 45 8 0 
1 -68 38 0 
1 -84 1 0 
1 -95 -106 0 
1 90 67 0 
1 50 42 0 
1 -5 30 0 
1 -35 -79 0 
1 -86 17 0 
1 23 79 0 
1 -39 31 0 
1 57 63 0 
1 -8 34 0 
1 68 3 0 
1 78 -90 0 
1 31 55 0 
1 85 61 0 
1 79 20 0 
1 -58 103 0 
1 -88 -61 0 
1 48 -56 0 
1 90 -61 0 
1 -79 -72 0 
1 10 14 0 
1 74 93 0 
1 43 -11 0 
1 -56 -93 0 
1 -41 -76 0 
1 -94 -19 0 
1 -9 -32 0 
1 -50 -93 0 
1 -11 -34 0 
1 -64 19 0 
1 42 -80 0 
1 22 59 0 
1 -79 47 0 
1 45 -47 0 
1 -96 -29 0 
1 103 -2 0 
1 -77 -67 0 
1 13 103 0 
1 -24 -59 0 
1 12 -73 0 
1 83 61 0 
1 31 -64 0 
1 -34 33 0 
1 98 -88 0 
1 92 -8 0 
1 -31 -105 0 
1 -66 57 0 
1 102 -58 0 
1 59 27 0 
1 77 -1 0 
1 -76 18 0 
1 -21 -88 0 
1 -1 24 0 
1 -63 -23 0 
1 73 -2 0 
1 -62 33 0 
1 18 45 0 
1 -90 -70 0 
1 -95 -25 0 
1 45 -70 0 
1 100 79 0 
1 -78 -47 0 
1 16 -45 0 
1 71 88 0 
1 63 -98 0 
1 103 -89 0 
1 -21 -104 0 
1 73 79 0 
1 33 98 0 
1 33 -18 0 
1 -42 6 0 
1 40 -57 0 
1 41 7 0 
1 -68 -100 0 
1 16 -42 0 
1 -43 -17 0 
